crypto/asymmetric/knapsack/example/2014 ASIS Cyber Security Contest Quals Archaic/enc.txt
165456265542619019911048752049537238192316299157790053134791273284520547177873162544007822950536951935987612849434859235821468568689829976251987217098416132294029261334844572972922899022180243644561708420059750855962662139534277280975890527900861320640416691670871816228233111043494395461258502666707892384980046617154756157496988751650206187370550262516276